0
9
10
13
15
12
14
16
12
13
18
13
16
20
15
20
15
21
26
25
11
9
10
11
12
11
11
12
11
12
12
12
11
10
9
10
10
11
11
10
11
17
17
18
18
19
21
22
21
20
22
23
23
18
18
18
18
18
21
22
22
22
22
22
22
23
23
23
23
23
23
23
23
23
23
23
23
23
23
23
23
25
25
25
25
24
24
24
24
24
24
24
24
24
24
24
25
25
26
26
26
